(set-info :smt-lib-version 2.6)
(set-logic LRA)
(set-info :source |
   Monniaux, David; Quantifier Elimination by Lazy Model Enumeration, CAV 2010
|)
(set-info :category "random")
; ./Mjollnir_examples/B4/formula_105.m
(set-info :status unsat)
(assert
 (exists ((|v11:0| Real) )(exists ((|v10:1| Real) )(exists ((|v9:2| Real) )(exists ((|v8:3| Real) )(forall ((|v7:4| Real) )(forall ((|v6:5| Real) )(forall ((|v5:6| Real) )(forall ((|v4:7| Real) )(exists ((|v3:8| Real) )(exists ((|v2:9| Real) )(exists ((|v1:10| Real) )(exists ((|v0:11| Real) )(let ((?x206 (- 7)))
(let ((?x616 (+ (+ (* 11 |v5:6|) (* (- 15) |v2:9|)) (* 5 |v9:2|))))
(let ((?x251 5))
(let ((?x217 3))
(let ((?x218 (* ?x217 |v4:7|)))
(let ((?x609 (+ (+ (* (- 8) |v6:5|) (* 16 |v8:3|)) (* (- 12) |v4:7|))))
(let (($x620 (and (<= (+ ?x609 ?x218) ?x251) (<= (+ ?x616 (* 19 |v0:11|)) ?x206))))
(let ((?x116 (- 11)))
(let ((?x601 (+ (+ (* (- 9) |v9:2|) (* 20 |v3:8|)) (* (- 4) |v8:3|))))
(let ((?x147 17))
(let ((?x593 (+ (+ (* (- 5) |v1:10|) (* 0 |v4:7|)) (* (- 6) |v11:0|))))
(let (($x605 (and (<= (+ ?x593 (* (- 15) |v3:8|)) ?x147) (<= (+ ?x601 (* ?x251 |v10:1|)) ?x116))))
(let ((?x125 (- 14)))
(let ((?x88 (- 6)))
(let ((?x89 (* ?x88 |v7:4|)))
(let ((?x586 (+ (+ (+ (* (- 17) |v3:8|) (* 2 |v2:9|)) ?x89) (* ?x116 |v11:0|))))
(let ((?x52 (- 19)))
(let ((?x209 (- 13)))
(let ((?x331 (* ?x209 |v3:8|)))
(let ((?x578 (+ (+ (* 15 |v0:11|) (* (- 12) |v3:8|)) (* 4 |v0:11|))))
(let ((?x154 6))
(let ((?x39 16))
(let ((?x40 (* ?x39 |v6:5|)))
(let ((?x571 (+ (+ (+ (* (- 5) |v1:10|) (* 9 |v10:1|)) ?x40) (* 18 |v4:7|))))
(let ((?x31 0))
(let ((?x135 9))
(let ((?x136 (* ?x135 |v8:3|)))
(let ((?x566 (+ (+ (+ (* 15 |v10:1|) (* (- 8) |v6:5|)) ?x136) (* ?x217 |v7:4|))))
(let (($x589 (and (and (<= ?x566 ?x31) (<= ?x571 ?x154)) (and (<= (+ ?x578 ?x331) ?x52) (<= ?x586 ?x125)))))
(let ((?x62 (- 1)))
(let ((?x98 (- 9)))
(let ((?x157 (* ?x98 |v0:11|)))
(let ((?x556 (+ (+ (* (- 8) |v8:3|) (* 11 |v10:1|)) (* 2 |v10:1|))))
(let ((?x548 (+ (+ (* (- 4) |v6:5|) (* ?x125 |v6:5|)) (* (- 10) |v7:4|))))
(let (($x559 (and (<= (+ ?x548 (* 18 |v10:1|)) ?x52) (<= (+ ?x556 ?x157) ?x62))))
(let ((?x191 11))
(let ((?x77 7))
(let ((?x104 (* ?x77 |v11:0|)))
(let ((?x542 (+ (+ (+ (* 20 |v4:7|) (* 13 |v8:3|)) ?x104) (* 20 |v8:3|))))
(let ((?x174 (- 16)))
(let ((?x499 (* ?x174 |v0:11|)))
(let ((?x535 (+ (+ (+ (* 4 |v1:10|) (* ?x135 |v6:5|)) (* ?x206 |v10:1|)) ?x499)))
(let ((?x73 (- 15)))
(let ((?x63 (* ?x62 |v2:9|)))
(let ((?x23 15))
(let ((?x414 (* ?x23 |v4:7|)))
(let (($x527 (<= (+ (+ (+ (* 2 |v0:11|) (* ?x62 |v9:2|)) ?x414) ?x63) ?x73)))
(let ((?x187 (- 8)))
(let ((?x520 (+ (+ (+ (* ?x116 |v7:4|) (* 12 |v2:9|)) (* ?x77 |v6:5|)) (* ?x187 |v11:0|))))
(let ((?x312 13))
(let ((?x19 14))
(let ((?x20 (* ?x19 |v4:7|)))
(let ((?x512 (+ (+ (+ (* ?x39 |v0:11|) (* (- 20) |v3:8|)) ?x20) (* (- 10) |v1:10|))))
(let ((?x505 (+ (+ (+ ?x499 (* (- 12) |v6:5|)) (* (- 4) |v5:6|)) (* ?x154 |v6:5|))))
(let (($x561 (and (and (and (<= ?x505 ?x62) (<= ?x512 ?x312)) (and (<= ?x520 ?x187) $x527)) (and (and (<= ?x535 ?x191) (<= ?x542 ?x191)) $x559))))
(let ((?x83 19))
(let ((?x493 (+ (+ (+ (* ?x125 |v7:4|) (* ?x88 |v3:8|)) (* (- 20) |v4:7|)) (* (- 18) |v11:0|))))
(let ((?x122 (- 20)))
(let ((?x487 (+ (+ (+ (* ?x19 |v9:2|) (* ?x125 |v6:5|)) (* ?x83 |v1:10|)) (* ?x73 |v9:2|))))
(let ((?x246 (- 5)))
(let ((?x479 (+ (+ (+ (* ?x77 |v8:3|) (* 18 |v11:0|)) (* ?x77 |v6:5|)) (* ?x39 |v9:2|))))
(let ((?x471 (+ (+ (+ (* ?x206 |v7:4|) (* (- 18) |v4:7|)) |v0:11|) (* ?x154 |v11:0|))))
(let (($x496 (and (and (<= ?x471 ?x209) (<= ?x479 ?x246)) (and (<= ?x487 ?x122) (<= ?x493 ?x83)))))
(let ((?x461 (+ (+ (* 10 |v0:11|) (* 8 |v2:9|)) (* 18 |v6:5|))))
(let ((?x239 (* ?x217 |v0:11|)))
(let ((?x455 (+ (+ (* (- 3) |v3:8|) (* 12 |v3:8|)) (* ?x125 |v4:7|))))
(let ((?x448 (+ (+ (+ (* ?x209 |v0:11|) (* ?x191 |v7:4|)) (* ?x39 |v4:7|)) (* (- 3) |v10:1|))))
(let ((?x440 (+ (+ (+ (* ?x187 |v10:1|) (* ?x206 |v2:9|)) (* (- 17) |v0:11|)) (* ?x209 |v4:7|))))
(let (($x466 (and (and (<= ?x440 ?x122) (<= ?x448 ?x98)) (and (<= (+ ?x455 ?x239) ?x312) (<= (+ ?x461 (* ?x88 |v4:7|)) ?x206)))))
(let ((?x430 (+ (+ (+ (* ?x116 |v4:7|) (* ?x191 |v4:7|)) (* ?x19 |v7:4|)) (* 2 |v4:7|))))
(let ((?x422 (+ (+ (* (- 10) |v0:11|) (* ?x31 |v9:2|)) (* (- 17) |v7:4|))))
(let ((?x47 12))
(let ((?x119 (* ?x47 |v10:1|)))
(let (($x416 (<= (+ (+ (+ (* 2 |v5:6|) (* ?x52 |v10:1|)) ?x119) ?x414) ?x187)))
(let ((?x408 (* ?x135 |v10:1|)))
(let (($x410 (<= (+ (+ (+ (* ?x19 |v10:1|) (* ?x174 |v8:3|)) (* ?x77 |v7:4|)) ?x408) ?x88)))
(let (($x433 (and (or $x410 $x416) (and (<= (+ ?x422 (* ?x174 |v9:2|)) ?x187) (<= ?x430 ?x246)))))
(let ((?x319 (* ?x98 |v5:6|)))
(let ((?x400 (+ (+ (+ (* ?x19 |v7:4|) (* 8 |v10:1|)) (* ?x206 |v2:9|)) ?x319)))
(let ((?x144 (* ?x88 |v3:8|)))
(let ((?x393 (+ (+ (* 18 |v3:8|) (* 8 |v11:0|)) (* ?x88 |v6:5|))))
(let ((?x386 (+ (+ (+ (* (- 4) |v10:1|) (* ?x83 |v5:6|)) (* ?x206 |v8:3|)) (* (- 17) |v6:5|))))
(let (($x380 (<= (+ (+ (+ (* ?x246 |v1:10|) (* ?x125 |v3:8|)) (* ?x206 |v3:8|)) ?x239) ?x19)))
(let (($x403 (or (and $x380 (<= ?x386 ?x77)) (and (<= (+ ?x393 ?x144) ?x47) (<= ?x400 ?x122)))))
(let (($x624 (and (and (and $x403 $x433) (and $x466 $x496)) (and $x561 (and $x589 (and $x605 $x620))))))
(let ((?x368 (+ (+ (+ (* (- 18) |v9:2|) (* ?x52 |v7:4|)) (* ?x122 |v6:5|)) (* ?x31 |v8:3|))))
(let ((?x359 (+ (+ (* ?x174 |v5:6|) (* (- 12) |v1:10|)) (* (- 2) |v6:5|))))
(let ((?x352 (+ (+ (+ (* (- 10) |v5:6|) (* ?x251 |v6:5|)) (* ?x135 |v5:6|)) (* ?x98 |v1:10|))))
(let ((?x344 (+ (+ (+ (* 10 |v1:10|) (* ?x23 |v8:3|)) |v8:3|) (* ?x246 |v0:11|))))
(let (($x371 (and (and (<= ?x344 ?x125) (<= ?x352 ?x312)) (and (<= (+ ?x359 (* 8 |v6:5|)) ?x191) (<= ?x368 ?x206)))))
(let ((?x14 20))
(let (($x337 (<= (+ (+ (+ (* ?x39 |v3:8|) ?x331) (* ?x77 |v3:8|)) (* ?x62 |v7:4|)) ?x14)))
(let ((?x329 (+ (+ (+ (* ?x88 |v9:2|) (* 2 |v5:6|)) (* ?x147 |v1:10|)) (* ?x217 |v2:9|))))
(let (($x321 (<= (+ (+ (+ (* ?x147 |v7:4|) (* ?x47 |v11:0|)) (* ?x77 |v5:6|)) ?x319) ?x88)))
(let ((?x310 (+ (+ (* (- 18) |v4:7|) (* 8 |v3:8|)) (* ?x77 |v9:2|))))
(let (($x339 (or (and (<= (+ ?x310 (* ?x312 |v3:8|)) ?x135) $x321) (and (<= ?x329 ?x206) $x337))))
(let ((?x165 18))
(let ((?x299 (+ (+ (+ (* ?x217 |v10:1|) (* (- 4) |v1:10|)) (* ?x52 |v2:9|)) (* ?x187 |v1:10|))))
(let ((?x291 (+ (+ (+ (* ?x122 |v9:2|) (* ?x23 |v10:1|)) (* ?x209 |v1:10|)) (* ?x98 |v11:0|))))
(let ((?x283 (+ (+ (+ (* ?x251 |v7:4|) (* ?x125 |v7:4|)) (* ?x62 |v0:11|)) (* ?x14 |v6:5|))))
(let ((?x275 (+ (+ (+ (* ?x246 |v1:10|) (* ?x125 |v6:5|)) (* ?x135 |v0:11|)) (* (- 10) |v8:3|))))
(let (($x302 (and (and (<= ?x275 ?x31) (<= ?x283 ?x217)) (and (<= ?x291 ?x209) (<= ?x299 ?x165)))))
(let ((?x265 (+ (+ (+ (* ?x116 |v3:8|) (* 4 |v11:0|)) (* ?x116 |v1:10|)) (* ?x39 |v1:10|))))
(let ((?x91 (- 12)))
(let ((?x26 10))
(let ((?x256 (* ?x26 |v1:10|)))
(let ((?x257 (+ (+ (+ (* (- 3) |v0:11|) (* ?x251 |v3:8|)) (* ?x187 |v9:2|)) ?x256)))
(let ((?x245 (+ (+ (+ ?x239 (* ?x26 |v7:4|)) (* 8 |v5:6|)) (* (- 3) |v8:3|))))
(let ((?x236 (+ (+ (+ (* ?x83 |v3:8|) (* ?x19 |v6:5|)) (* ?x31 |v7:4|)) (* ?x26 |v6:5|))))
(let (($x268 (or (and (<= ?x236 1) (<= ?x245 ?x246)) (and (<= ?x257 ?x91) (<= ?x265 ?x191)))))
(let ((?x224 (+ (+ (+ ?x218 (* (- 4) |v11:0|)) (* ?x62 |v5:6|)) (* ?x47 |v0:11|))))
(let ((?x214 (+ (+ (+ (* ?x206 |v8:3|) (* ?x209 |v8:3|)) (* ?x191 |v3:8|)) (* ?x73 |v1:10|))))
(let ((?x202 (+ (+ (+ (* ?x77 |v2:9|) (* (- 2) |v1:10|)) (* ?x154 |v5:6|)) (* ?x23 |v9:2|))))
(let ((?x44 8))
(let ((?x194 (* ?x19 |v7:4|)))
(let (($x196 (<= (+ (+ (+ (* ?x62 |v8:3|) (* ?x187 |v4:7|)) (* ?x191 |v3:8|)) ?x194) ?x44)))
(let ((?x181 (- 4)))
(let ((?x180 (+ (+ (+ (* ?x174 |v1:10|) (* ?x31 |v3:8|)) (* ?x39 |v3:8|)) (* ?x19 |v5:6|))))
(let (($x171 (<= (+ (+ (+ (* ?x23 |v3:8|) (* ?x165 |v7:4|)) |v3:8|) (* ?x31 |v6:5|)) ?x116)))
(let ((?x160 (+ (+ (+ (* ?x26 |v0:11|) (* ?x154 |v10:1|)) ?x157) (* (- 17) |v9:2|))))
(let (($x162 (and (<= (+ (+ (+ (* ?x77 |v5:6|) ?x144) (* ?x147 |v7:4|)) |v8:3|) ?x31) (<= ?x160 ?x147))))
(let (($x228 (and (and $x162 (and $x171 (<= ?x180 ?x181))) (and (and $x196 (<= ?x202 ?x77)) (and (<= ?x214 ?x14) (<= ?x224 ?x62))))))
(let ((?x138 2))
(let ((?x137 (+ (+ (+ (* (- 2) |v10:1|) (* ?x122 |v2:9|)) (* ?x26 |v5:6|)) ?x136)))
(let (($x126 (<= (+ (+ (+ (* ?x116 |v4:7|) (* ?x23 |v10:1|)) ?x119) (* ?x122 |v6:5|)) ?x125)))
(let ((?x70 (- 3)))
(let ((?x111 (+ (+ (+ (* (- 17) |v4:7|) ?x104) (* (- 2) |v9:2|)) (* ?x91 |v7:4|))))
(let (($x101 (<= (+ (+ (+ ?x89 (* ?x91 |v10:1|)) (* ?x14 |v0:11|)) (* ?x98 |v7:4|)) ?x88)))
(let ((?x81 (* ?x77 |v7:4|)))
(let (($x84 (<= (+ (+ (+ (* ?x70 |v1:10|) (* ?x73 |v10:1|)) (* ?x77 |v2:9|)) ?x81) ?x83)))
(let ((?x60 (+ (+ (* ?x52 |v4:7|) (* 4 |v4:7|)) (* (- 10) |v2:9|))))
(let ((?x46 (+ (+ (+ (* ?x31 |v3:8|) (* (- 10) |v3:8|)) ?x40) (* ?x44 |v9:2|))))
(let ((?x24 (* ?x23 |v10:1|)))
(let (($x27 (<= (+ (+ (+ (* (- 17) |v8:3|) (* ?x14 |v10:1|)) ?x20) ?x24) ?x26)))
(let (($x86 (and (and $x27 (<= ?x46 ?x47)) (and (<= (+ ?x60 ?x63) 1) $x84))))
(let (($x142 (and $x86 (and (and $x101 (<= ?x111 ?x70)) (and $x126 (<= ?x137 ?x138))))))
(and (and (and $x142 $x228) (and (and $x268 $x302) (and $x339 $x371))) $x624))))))))))))))))))))))))))))))))))))))))))))))))))))))))))))))))))))))))))))))))))))))))))))))))))))))))))))))))))))))))))))))))))))))))))
)
)
)
)
)
)
)
)
)
)
)
)
(check-sat)
(exit)

